
;this file is automatically generated: Tue Mar 02 16:20:05 CST 2021

;declarations generated

(declare-fun oclExcludes ( Int Int) Bool)
(declare-fun type_efae4b4f_a119_442f_bcc7_dc09f22da9e3_Class9 ( Int) Bool)
(declare-fun type_efae4b4f_a119_442f_bcc7_dc09f22da9e3_Class8 ( Int) Bool)
(declare-fun type_efae4b4f_a119_442f_bcc7_dc09f22da9e3_Class7 ( Int) Bool)
(declare-fun type_efae4b4f_a119_442f_bcc7_dc09f22da9e3_Class6 ( Int) Bool)
(declare-fun Cardinality ( Int) Int)
(declare-fun type_efae4b4f_a119_442f_bcc7_dc09f22da9e3_Class19 ( Int) Bool)
(declare-fun type_efae4b4f_a119_442f_bcc7_dc09f22da9e3_Class18 ( Int) Bool)
(declare-fun type_efae4b4f_a119_442f_bcc7_dc09f22da9e3_Class17 ( Int) Bool)
(declare-fun type_efae4b4f_a119_442f_bcc7_dc09f22da9e3_Class16 ( Int) Bool)
(declare-fun type_efae4b4f_a119_442f_bcc7_dc09f22da9e3_Class15 ( Int) Bool)
(declare-fun type_efae4b4f_a119_442f_bcc7_dc09f22da9e3_Class14 ( Int) Bool)
(declare-fun type_efae4b4f_a119_442f_bcc7_dc09f22da9e3_Class13 ( Int) Bool)
(declare-fun type_efae4b4f_a119_442f_bcc7_dc09f22da9e3_Class1 ( Int) Bool)
(declare-fun type_efae4b4f_a119_442f_bcc7_dc09f22da9e3_Class12 ( Int) Bool)
(declare-fun type_efae4b4f_a119_442f_bcc7_dc09f22da9e3_Class0 ( Int) Bool)
(declare-fun type_efae4b4f_a119_442f_bcc7_dc09f22da9e3_Class11 ( Int) Bool)
(declare-fun type_efae4b4f_a119_442f_bcc7_dc09f22da9e3_Class10 ( Int) Bool)
(declare-fun type_efae4b4f_a119_442f_bcc7_dc09f22da9e3_Class5 ( Int) Bool)
(declare-fun type_efae4b4f_a119_442f_bcc7_dc09f22da9e3_Class4 ( Int) Bool)
(declare-fun type_efae4b4f_a119_442f_bcc7_dc09f22da9e3_Class3 ( Int) Bool)
(declare-fun type_efae4b4f_a119_442f_bcc7_dc09f22da9e3_Class2 ( Int) Bool)
(declare-fun type_efae4b4f_a119_442f_bcc7_dc09f22da9e3_Class29 ( Int) Bool)
(declare-fun type_efae4b4f_a119_442f_bcc7_dc09f22da9e3_Class28 ( Int) Bool)
(declare-fun type_efae4b4f_a119_442f_bcc7_dc09f22da9e3_Class27 ( Int) Bool)
(declare-fun type_efae4b4f_a119_442f_bcc7_dc09f22da9e3_Class26 ( Int) Bool)
(declare-fun type_efae4b4f_a119_442f_bcc7_dc09f22da9e3_Class25 ( Int) Bool)
(declare-fun type_efae4b4f_a119_442f_bcc7_dc09f22da9e3_Class24 ( Int) Bool)
(declare-fun type_efae4b4f_a119_442f_bcc7_dc09f22da9e3_Class23 ( Int) Bool)
(declare-fun type_efae4b4f_a119_442f_bcc7_dc09f22da9e3_Class22 ( Int) Bool)
(declare-fun type_efae4b4f_a119_442f_bcc7_dc09f22da9e3_Class21 ( Int) Bool)
(declare-fun type_efae4b4f_a119_442f_bcc7_dc09f22da9e3_Class20 ( Int) Bool)
(declare-fun obj_0180ca11_501a_4075_9077_eed35e9904c9 ( Int) Int)
(declare-fun class28_Class28IntAttr1 ( Int) Int)
(declare-fun oclSelect ( Int Bool) Int)
(declare-fun Enum0 ( Int) Int)
(declare-fun Enum1 ( Int) Int)
(declare-fun Enum2 ( Int) Int)
(declare-fun container_ ( Int) Int)
(declare-fun oclIncludes ( Int Int) Bool)
(declare-fun class28_Class28BoolAttr0 ( Int) Bool)
(declare-fun ObjAt ( Int Int) Int)

;formula(s) generated
(assert (forall ((p Int)) (=> ( type_efae4b4f_a119_442f_bcc7_dc09f22da9e3_Class28 p )  (and (>= ( Enum1 ( obj_0180ca11_501a_4075_9077_eed35e9904c9 p )  )  0) (<= ( Enum1 ( obj_0180ca11_501a_4075_9077_eed35e9904c9 p )  )  4)))))
(assert (! (forall ((v Int)) (=> (and (and (and (and ( type_efae4b4f_a119_442f_bcc7_dc09f22da9e3_Class28 v )  ( type_efae4b4f_a119_442f_bcc7_dc09f22da9e3_Class25 v ) ) ( type_efae4b4f_a119_442f_bcc7_dc09f22da9e3_Class13 v ) ) ( type_efae4b4f_a119_442f_bcc7_dc09f22da9e3_Class0 v ) ) ( type_efae4b4f_a119_442f_bcc7_dc09f22da9e3_Class21 v ) ) (or (>= ( class28_Class28IntAttr1 ( obj_0180ca11_501a_4075_9077_eed35e9904c9 v )  )  13) (or (forall ((v Int)) (=> (and (and (and (and ( type_efae4b4f_a119_442f_bcc7_dc09f22da9e3_Class28 v )  ( type_efae4b4f_a119_442f_bcc7_dc09f22da9e3_Class25 v ) ) ( type_efae4b4f_a119_442f_bcc7_dc09f22da9e3_Class13 v ) ) ( type_efae4b4f_a119_442f_bcc7_dc09f22da9e3_Class0 v ) ) ( type_efae4b4f_a119_442f_bcc7_dc09f22da9e3_Class21 v ) ) (not ( class28_Class28BoolAttr0 ( obj_0180ca11_501a_4075_9077_eed35e9904c9 v )  )  ))) (forall ((v Int)) (=> (and (and (and (and ( type_efae4b4f_a119_442f_bcc7_dc09f22da9e3_Class28 v )  ( type_efae4b4f_a119_442f_bcc7_dc09f22da9e3_Class25 v ) ) ( type_efae4b4f_a119_442f_bcc7_dc09f22da9e3_Class13 v ) ) ( type_efae4b4f_a119_442f_bcc7_dc09f22da9e3_Class0 v ) ) ( type_efae4b4f_a119_442f_bcc7_dc09f22da9e3_Class21 v ) ) (= ( Enum1 ( obj_0180ca11_501a_4075_9077_eed35e9904c9 v )  )  4))))))):named l0))
(assert (! (or (forall ((v Int)) (=> (and (and (and (and ( type_efae4b4f_a119_442f_bcc7_dc09f22da9e3_Class28 v )  ( type_efae4b4f_a119_442f_bcc7_dc09f22da9e3_Class25 v ) ) ( type_efae4b4f_a119_442f_bcc7_dc09f22da9e3_Class13 v ) ) ( type_efae4b4f_a119_442f_bcc7_dc09f22da9e3_Class0 v ) ) ( type_efae4b4f_a119_442f_bcc7_dc09f22da9e3_Class21 v ) ) (> ( class28_Class28IntAttr1 ( obj_0180ca11_501a_4075_9077_eed35e9904c9 v )  )  3))) (forall ((v Int)) (=> (and (and (and (and ( type_efae4b4f_a119_442f_bcc7_dc09f22da9e3_Class28 v )  ( type_efae4b4f_a119_442f_bcc7_dc09f22da9e3_Class25 v ) ) ( type_efae4b4f_a119_442f_bcc7_dc09f22da9e3_Class13 v ) ) ( type_efae4b4f_a119_442f_bcc7_dc09f22da9e3_Class0 v ) ) ( type_efae4b4f_a119_442f_bcc7_dc09f22da9e3_Class21 v ) ) (> ( class28_Class28IntAttr1 ( obj_0180ca11_501a_4075_9077_eed35e9904c9 v )  )  5)))):named l1))
(assert (! (exists ((o Int)) (and ( type_efae4b4f_a119_442f_bcc7_dc09f22da9e3_Class0 ( obj_0180ca11_501a_4075_9077_eed35e9904c9 o )  )  ( type_efae4b4f_a119_442f_bcc7_dc09f22da9e3_Class25 ( obj_0180ca11_501a_4075_9077_eed35e9904c9 o )  ) )):named c0))
(assert (! (exists ((o Int)) ( type_efae4b4f_a119_442f_bcc7_dc09f22da9e3_Class1 ( obj_0180ca11_501a_4075_9077_eed35e9904c9 o )  ) ):named c1))
(assert (! (exists ((o Int)) ( type_efae4b4f_a119_442f_bcc7_dc09f22da9e3_Class10 ( obj_0180ca11_501a_4075_9077_eed35e9904c9 o )  ) ):named c2))
(assert (! (exists ((o Int)) ( type_efae4b4f_a119_442f_bcc7_dc09f22da9e3_Class11 ( obj_0180ca11_501a_4075_9077_eed35e9904c9 o )  ) ):named c3))
(assert (! (exists ((o Int)) ( type_efae4b4f_a119_442f_bcc7_dc09f22da9e3_Class12 ( obj_0180ca11_501a_4075_9077_eed35e9904c9 o )  ) ):named c4))
(assert (! (exists ((o Int)) (and (and ( type_efae4b4f_a119_442f_bcc7_dc09f22da9e3_Class13 ( obj_0180ca11_501a_4075_9077_eed35e9904c9 o )  )  ( type_efae4b4f_a119_442f_bcc7_dc09f22da9e3_Class25 ( obj_0180ca11_501a_4075_9077_eed35e9904c9 o )  ) ) ( type_efae4b4f_a119_442f_bcc7_dc09f22da9e3_Class0 ( obj_0180ca11_501a_4075_9077_eed35e9904c9 o )  ) )):named c5))
(assert (! (exists ((o Int)) (and (and ( type_efae4b4f_a119_442f_bcc7_dc09f22da9e3_Class14 ( obj_0180ca11_501a_4075_9077_eed35e9904c9 o )  )  ( type_efae4b4f_a119_442f_bcc7_dc09f22da9e3_Class25 ( obj_0180ca11_501a_4075_9077_eed35e9904c9 o )  ) ) ( type_efae4b4f_a119_442f_bcc7_dc09f22da9e3_Class17 ( obj_0180ca11_501a_4075_9077_eed35e9904c9 o )  ) )):named c6))
(assert (! (exists ((o Int)) ( type_efae4b4f_a119_442f_bcc7_dc09f22da9e3_Class15 ( obj_0180ca11_501a_4075_9077_eed35e9904c9 o )  ) ):named c7))
(assert (! (exists ((o Int)) ( type_efae4b4f_a119_442f_bcc7_dc09f22da9e3_Class16 ( obj_0180ca11_501a_4075_9077_eed35e9904c9 o )  ) ):named c8))
(assert (! (exists ((o Int)) (and ( type_efae4b4f_a119_442f_bcc7_dc09f22da9e3_Class17 ( obj_0180ca11_501a_4075_9077_eed35e9904c9 o )  )  ( type_efae4b4f_a119_442f_bcc7_dc09f22da9e3_Class25 ( obj_0180ca11_501a_4075_9077_eed35e9904c9 o )  ) )):named c9))
(assert (! (exists ((o Int)) (and (and ( type_efae4b4f_a119_442f_bcc7_dc09f22da9e3_Class18 ( obj_0180ca11_501a_4075_9077_eed35e9904c9 o )  )  ( type_efae4b4f_a119_442f_bcc7_dc09f22da9e3_Class25 ( obj_0180ca11_501a_4075_9077_eed35e9904c9 o )  ) ) ( type_efae4b4f_a119_442f_bcc7_dc09f22da9e3_Class17 ( obj_0180ca11_501a_4075_9077_eed35e9904c9 o )  ) )):named c10))
(assert (! (exists ((o Int)) ( type_efae4b4f_a119_442f_bcc7_dc09f22da9e3_Class19 ( obj_0180ca11_501a_4075_9077_eed35e9904c9 o )  ) ):named c11))
(assert (! (exists ((o Int)) ( type_efae4b4f_a119_442f_bcc7_dc09f22da9e3_Class2 ( obj_0180ca11_501a_4075_9077_eed35e9904c9 o )  ) ):named c12))
(assert (! (exists ((o Int)) ( type_efae4b4f_a119_442f_bcc7_dc09f22da9e3_Class20 ( obj_0180ca11_501a_4075_9077_eed35e9904c9 o )  ) ):named c13))
(assert (! (exists ((o Int)) (and (and (and ( type_efae4b4f_a119_442f_bcc7_dc09f22da9e3_Class21 ( obj_0180ca11_501a_4075_9077_eed35e9904c9 o )  )  ( type_efae4b4f_a119_442f_bcc7_dc09f22da9e3_Class25 ( obj_0180ca11_501a_4075_9077_eed35e9904c9 o )  ) ) ( type_efae4b4f_a119_442f_bcc7_dc09f22da9e3_Class13 ( obj_0180ca11_501a_4075_9077_eed35e9904c9 o )  ) ) ( type_efae4b4f_a119_442f_bcc7_dc09f22da9e3_Class0 ( obj_0180ca11_501a_4075_9077_eed35e9904c9 o )  ) )):named c14))
(assert (! (exists ((o Int)) ( type_efae4b4f_a119_442f_bcc7_dc09f22da9e3_Class22 ( obj_0180ca11_501a_4075_9077_eed35e9904c9 o )  ) ):named c15))
(assert (! (exists ((o Int)) (and (and (and (and ( type_efae4b4f_a119_442f_bcc7_dc09f22da9e3_Class23 ( obj_0180ca11_501a_4075_9077_eed35e9904c9 o )  )  ( type_efae4b4f_a119_442f_bcc7_dc09f22da9e3_Class25 ( obj_0180ca11_501a_4075_9077_eed35e9904c9 o )  ) ) ( type_efae4b4f_a119_442f_bcc7_dc09f22da9e3_Class13 ( obj_0180ca11_501a_4075_9077_eed35e9904c9 o )  ) ) ( type_efae4b4f_a119_442f_bcc7_dc09f22da9e3_Class0 ( obj_0180ca11_501a_4075_9077_eed35e9904c9 o )  ) ) ( type_efae4b4f_a119_442f_bcc7_dc09f22da9e3_Class21 ( obj_0180ca11_501a_4075_9077_eed35e9904c9 o )  ) )):named c16))
(assert (! (exists ((o Int)) (and (and ( type_efae4b4f_a119_442f_bcc7_dc09f22da9e3_Class24 ( obj_0180ca11_501a_4075_9077_eed35e9904c9 o )  )  ( type_efae4b4f_a119_442f_bcc7_dc09f22da9e3_Class25 ( obj_0180ca11_501a_4075_9077_eed35e9904c9 o )  ) ) ( type_efae4b4f_a119_442f_bcc7_dc09f22da9e3_Class0 ( obj_0180ca11_501a_4075_9077_eed35e9904c9 o )  ) )):named c17))
(assert (! (exists ((o Int)) ( type_efae4b4f_a119_442f_bcc7_dc09f22da9e3_Class25 ( obj_0180ca11_501a_4075_9077_eed35e9904c9 o )  ) ):named c18))
(assert (! (exists ((o Int)) ( type_efae4b4f_a119_442f_bcc7_dc09f22da9e3_Class26 ( obj_0180ca11_501a_4075_9077_eed35e9904c9 o )  ) ):named c19))
(assert (! (exists ((o Int)) (and (and ( type_efae4b4f_a119_442f_bcc7_dc09f22da9e3_Class27 ( obj_0180ca11_501a_4075_9077_eed35e9904c9 o )  )  ( type_efae4b4f_a119_442f_bcc7_dc09f22da9e3_Class25 ( obj_0180ca11_501a_4075_9077_eed35e9904c9 o )  ) ) ( type_efae4b4f_a119_442f_bcc7_dc09f22da9e3_Class17 ( obj_0180ca11_501a_4075_9077_eed35e9904c9 o )  ) )):named c20))
(assert (! (exists ((o Int)) (and (and (and (and ( type_efae4b4f_a119_442f_bcc7_dc09f22da9e3_Class28 ( obj_0180ca11_501a_4075_9077_eed35e9904c9 o )  )  ( type_efae4b4f_a119_442f_bcc7_dc09f22da9e3_Class25 ( obj_0180ca11_501a_4075_9077_eed35e9904c9 o )  ) ) ( type_efae4b4f_a119_442f_bcc7_dc09f22da9e3_Class13 ( obj_0180ca11_501a_4075_9077_eed35e9904c9 o )  ) ) ( type_efae4b4f_a119_442f_bcc7_dc09f22da9e3_Class0 ( obj_0180ca11_501a_4075_9077_eed35e9904c9 o )  ) ) ( type_efae4b4f_a119_442f_bcc7_dc09f22da9e3_Class21 ( obj_0180ca11_501a_4075_9077_eed35e9904c9 o )  ) )):named c21))
(assert (! (exists ((o Int)) ( type_efae4b4f_a119_442f_bcc7_dc09f22da9e3_Class29 ( obj_0180ca11_501a_4075_9077_eed35e9904c9 o )  ) ):named c22))
(assert (! (exists ((o Int)) ( type_efae4b4f_a119_442f_bcc7_dc09f22da9e3_Class3 ( obj_0180ca11_501a_4075_9077_eed35e9904c9 o )  ) ):named c23))
(assert (! (exists ((o Int)) (and (and (and (and ( type_efae4b4f_a119_442f_bcc7_dc09f22da9e3_Class4 ( obj_0180ca11_501a_4075_9077_eed35e9904c9 o )  )  ( type_efae4b4f_a119_442f_bcc7_dc09f22da9e3_Class25 ( obj_0180ca11_501a_4075_9077_eed35e9904c9 o )  ) ) ( type_efae4b4f_a119_442f_bcc7_dc09f22da9e3_Class24 ( obj_0180ca11_501a_4075_9077_eed35e9904c9 o )  ) ) ( type_efae4b4f_a119_442f_bcc7_dc09f22da9e3_Class6 ( obj_0180ca11_501a_4075_9077_eed35e9904c9 o )  ) ) ( type_efae4b4f_a119_442f_bcc7_dc09f22da9e3_Class0 ( obj_0180ca11_501a_4075_9077_eed35e9904c9 o )  ) )):named c24))
(assert (! (exists ((o Int)) ( type_efae4b4f_a119_442f_bcc7_dc09f22da9e3_Class5 ( obj_0180ca11_501a_4075_9077_eed35e9904c9 o )  ) ):named c25))
(assert (! (exists ((o Int)) (and (and (and ( type_efae4b4f_a119_442f_bcc7_dc09f22da9e3_Class6 ( obj_0180ca11_501a_4075_9077_eed35e9904c9 o )  )  ( type_efae4b4f_a119_442f_bcc7_dc09f22da9e3_Class25 ( obj_0180ca11_501a_4075_9077_eed35e9904c9 o )  ) ) ( type_efae4b4f_a119_442f_bcc7_dc09f22da9e3_Class24 ( obj_0180ca11_501a_4075_9077_eed35e9904c9 o )  ) ) ( type_efae4b4f_a119_442f_bcc7_dc09f22da9e3_Class0 ( obj_0180ca11_501a_4075_9077_eed35e9904c9 o )  ) )):named c26))
(assert (! (exists ((o Int)) ( type_efae4b4f_a119_442f_bcc7_dc09f22da9e3_Class7 ( obj_0180ca11_501a_4075_9077_eed35e9904c9 o )  ) ):named c27))
(assert (! (exists ((o Int)) ( type_efae4b4f_a119_442f_bcc7_dc09f22da9e3_Class8 ( obj_0180ca11_501a_4075_9077_eed35e9904c9 o )  ) ):named c28))
(assert (! (exists ((o Int)) ( type_efae4b4f_a119_442f_bcc7_dc09f22da9e3_Class9 ( obj_0180ca11_501a_4075_9077_eed35e9904c9 o )  ) ):named c29))

 ;end of formula 